NAME : XML100_1256_15
DIMENSION : 101
NB_CLUSTERS : 30
CLUSTERING_ALG : DBSCAN
CLUSTERING_PARAMS : eps(18), minSamples(3)
CLUSTERS
1 0
2 21 55 56 66 76
3 25 37 67 77 81
4 20 28 61 83 91
5 33 35 41 65 72 82 84
6 1 36 52 59 80 95
7 32 50 57 63
8 12 47 73
9 39 87 100
10 15 19 27 92
11 30 97
12 13 71 79
13 4 17 42 70
14 14 89 98
15 38 90 93 99
16 3 31 34 85
17 45 46
18 2 6
19 68 69 74
20 62 86
21 51 60
22 10 24
23 9 29 54 75 88
24 26 48 49
25 8 64 96
26 7 23 40 53 94
27 22 78
28 18 44 58
29 11 16
30 5 43
EOF